nbGenes = 30;
preference = [[0 8 4 8 6 6 7 7 7 8 7 10 6 8 7 8 5 3 5 5 6 7 6 4 7 7 8 6 6 9 ]
[7 0 7 8 8 8 8 8 10 7 9 9 6 6 6 7 7 3 4 6 6 7 7 5 8 6 5 5 8 4 ]
[11 8 0 8 9 8 8 10 10 9 8 11 9 9 8 7 7 7 6 8 8 9 9 8 7 7 10 6 6 7 ]
[7 7 7 0 6 6 5 7 8 5 7 8 8 9 7 7 7 4 5 6 6 7 6 5 6 4 8 5 7 6 ]
[9 7 6 9 0 7 8 8 8 9 8 9 8 7 7 7 8 4 7 8 8 9 8 8 7 8 9 6 8 8 ]
[9 7 7 9 8 0 7 10 8 6 9 10 8 9 7 8 7 6 6 7 7 8 8 6 6 5 7 4 5 5 ]
[8 7 7 10 7 8 0 6 10 7 8 8 8 10 7 7 6 8 8 8 6 6 7 8 6 7 10 5 6 8 ]
[8 7 5 8 7 5 9 0 9 5 7 9 7 8 7 7 3 5 7 4 6 5 4 6 5 8 7 4 5 6 ]
[8 5 5 7 7 7 5 6 0 7 7 11 8 7 6 7 7 5 5 7 6 7 8 8 6 7 7 5 5 7 ]
[7 8 6 10 6 9 8 10 8 0 8 9 7 9 8 10 8 5 5 8 8 9 7 7 7 6 9 6 8 6 ]
[8 6 7 8 7 6 7 8 8 7 0 10 6 8 6 6 6 4 5 7 6 6 5 6 5 4 6 4 6 7 ]
[5 6 4 7 6 5 7 6 4 6 5 0 7 6 6 7 6 3 4 5 6 5 6 6 5 5 7 6 6 7 ]
[9 9 6 7 7 7 7 8 7 8 9 8 0 8 9 9 6 5 5 7 6 7 6 7 6 6 10 4 7 7 ]
[7 9 6 6 8 6 5 7 8 6 7 9 7 0 7 7 6 4 5 4 6 7 6 7 6 6 10 5 7 6 ]
[8 9 7 8 8 8 8 8 9 7 9 9 6 8 0 8 4 6 5 5 6 8 5 5 6 6 7 7 7 7 ]
[7 8 8 8 8 7 8 8 8 5 9 8 6 8 7 0 6 4 5 7 5 7 5 6 6 4 7 4 7 7 ]
[10 8 8 8 7 8 9 12 8 7 9 9 9 9 11 9 0 7 8 7 8 9 8 6 8 7 9 8 9 6 ]
[12 12 8 11 11 9 7 10 10 10 11 12 10 11 9 11 8 0 6 8 9 9 9 9 8 10 11 8 8 9 ]
[10 11 9 10 8 9 7 8 10 10 10 11 10 10 10 10 7 9 0 11 8 8 9 8 7 10 10 7 7 10 ]
[10 9 7 9 7 8 7 11 8 7 8 10 8 11 10 8 8 7 4 0 7 7 7 8 9 7 8 7 6 7 ]
[9 9 7 9 7 8 9 9 9 7 9 9 9 9 9 10 7 6 7 8 0 8 6 9 6 7 7 5 9 6 ]
[8 8 6 8 6 7 9 10 8 6 9 10 8 8 7 8 6 6 7 8 7 0 6 7 7 8 8 7 6 8 ]
[9 8 6 9 7 7 8 11 7 8 10 9 9 9 10 10 7 6 6 8 9 9 0 9 9 7 9 7 8 7 ]
[11 10 7 10 7 9 7 9 7 8 9 9 8 8 10 9 9 6 7 7 6 8 6 0 7 6 10 7 7 10 ]
[8 7 8 9 8 9 9 10 9 8 10 10 9 9 9 9 7 7 8 6 9 8 6 8 0 10 7 5 7 8 ]
[8 9 8 11 7 10 8 7 8 9 11 10 9 9 9 11 8 5 5 8 8 7 8 9 5 0 11 5 8 8 ]
[7 10 5 7 6 8 5 8 8 6 9 8 5 5 8 8 6 4 5 7 8 7 6 5 8 4 0 6 7 6 ]
[9 10 9 10 9 11 10 11 10 9 11 9 11 10 8 11 7 7 8 8 10 8 8 8 10 10 9 0 9 9 ]
[9 7 9 8 7 10 9 10 10 7 9 9 8 8 8 8 6 7 8 9 6 9 7 8 8 7 8 6 0 7 ]
[6 11 8 9 7 10 7 9 8 9 8 8 8 9 8 8 9 6 5 8 9 7 8 5 7 7 9 6 8 0 ]
];
